 200 70 
 13 12 72 46 76 30 45 8 5 35 50 80 
 73 94 9 50 87 9 83 66 25 15 52 65 
 86 81 29 8 12 41 38 18 10 69 53 35 
 23 1 77 65 98 5 99 32 47 48 27 43 
 99 53 43 37 37 34 55 37 13 13 20 50 
 64 34 29 8 24 79 95 9 70 21 
 17 
 6 11 15 16 19 26 39 41 45 46 47 51 
 53 56 58 62 70 
 38 
 1 2 3 4 6 8 9 10 14 17 18 22 
 28 32 33 34 35 36 37 38 40 42 44 46 
 47 48 49 50 53 54 56 57 59 60 61 62 
 65 68 
 44 
 1 4 5 6 8 10 11 17 18 20 24 25 
 26 30 33 35 36 37 38 39 40 41 42 43 
 44 47 48 49 50 51 52 53 54 55 57 58 
 61 63 64 65 67 68 69 70 
 54 
 1 3 4 5 6 7 8 9 11 13 14 15 
 16 19 20 21 22 24 25 26 27 28 30 31 
 32 33 34 37 38 39 40 41 42 43 44 45 
 46 47 49 51 52 53 54 56 57 58 59 62 
 63 64 65 67 68 69 
 65 
 1 2 4 5 6 7 8 9 10 11 12 13 
 14 15 16 17 18 19 20 21 22 23 24 25 
 26 27 28 29 30 31 32 33 34 35 36 38 
 39 40 41 42 44 45 46 47 48 49 50 51 
 52 53 54 55 56 58 59 60 61 62 63 64 
 65 67 68 69 70 
 15 
 7 11 12 14 17 21 24 27 33 42 45 59 
 62 69 70 
 52 
 3 4 5 7 8 9 10 11 12 13 14 15 
 18 20 21 22 23 24 25 26 27 28 29 30 
 32 34 35 36 37 38 39 40 42 43 45 46 
 47 48 50 51 54 56 57 58 59 61 62 66 
 67 68 69 70 
 21 
 3 6 7 12 14 18 22 23 28 30 32 33 
 35 38 41 44 47 49 53 54 55 
 34 
 2 5 9 10 11 12 13 16 18 19 20 24 
 25 26 29 32 33 35 36 37 39 42 43 46 
 48 51 53 56 58 59 62 63 64 70 
 70 
 1 2 3 4 5 6 7 8 9 10 11 12 
 13 14 15 16 17 18 19 20 21 22 23 24 
 25 26 27 28 29 30 31 32 33 34 35 36 
 37 38 39 40 41 42 43 44 45 46 47 48 
 49 50 51 52 53 54 55 56 57 58 59 60 
 61 62 63 64 65 66 67 68 69 70 
 30 
 2 6 10 12 16 18 20 22 23 29 30 34 
 37 40 43 44 45 46 48 49 50 55 58 60 
 61 63 64 65 68 69 
 37 
 1 3 4 5 6 7 8 9 10 12 13 14 
 16 17 21 22 29 30 31 33 34 35 37 39 
 40 45 48 53 54 57 58 59 60 62 64 66 
 69 
 13 
 8 9 13 29 31 35 38 48 54 59 68 69 
 70 
 21 
 4 6 8 12 17 18 21 25 28 31 33 34 
 37 41 44 45 50 54 55 61 63 
 66 
 1 2 3 4 5 6 7 8 9 10 11 12 
 13 14 15 16 17 18 19 20 21 22 23 24 
 25 26 27 28 29 30 31 32 33 35 37 38 
 39 40 41 42 43 44 46 47 48 49 50 51 
 52 53 54 56 57 58 59 60 61 62 63 64 
 65 66 67 68 69 70 
 32 
 1 2 3 5 6 8 9 15 20 26 27 31 
 35 37 39 40 43 44 45 48 49 50 51 53 
 54 56 57 58 60 61 62 67 
 50 
 1 4 5 6 7 8 9 10 12 13 14 15 
 16 22 23 24 28 29 30 31 32 33 34 35 
 36 38 39 41 42 43 44 45 47 48 49 50 
 51 52 53 54 56 58 59 60 62 63 64 67 
 68 69 
 4 
 22 29 43 68 
 46 
 1 3 4 5 7 9 10 14 17 18 21 24 
 25 26 27 28 30 31 32 34 36 37 39 41 
 42 44 45 47 48 49 51 52 53 55 57 58 
 59 60 61 62 63 64 65 67 68 70 
 38 
 1 2 4 5 6 8 9 10 11 12 15 16 
 17 18 20 21 25 27 28 29 31 34 36 38 
 40 43 44 45 46 49 53 54 58 59 61 63 
 68 69 
 58 
 1 3 4 5 8 9 11 12 13 14 15 16 
 18 19 20 21 23 24 25 26 27 28 29 30 
 31 32 33 34 35 36 37 38 39 40 41 42 
 43 45 46 47 48 50 51 53 54 55 56 58 
 59 60 61 62 64 65 66 67 68 69 
 3 
 11 15 62 
 58 
 1 2 3 4 5 6 7 8 9 10 11 12 
 13 14 15 16 18 19 23 24 25 27 28 30 
 31 32 34 35 37 38 40 41 43 44 45 46 
 47 48 49 50 51 53 54 55 56 57 58 59 
 60 61 63 64 65 66 67 68 69 70 
 46 
 1 2 3 4 5 8 9 11 12 13 14 15 
 16 18 19 21 23 24 25 26 27 28 29 31 
 33 35 37 40 41 42 44 45 47 48 49 51 
 53 54 55 58 60 61 62 63 64 67 
 15 
 6 7 23 25 29 30 32 38 44 45 46 49 
 55 60 61 
 42 
 1 3 6 8 9 10 12 18 19 20 23 24 
 26 28 32 33 35 36 37 38 39 42 44 46 
 47 48 49 51 52 53 54 55 56 59 60 62 
 64 65 67 68 69 70 
 5 
 18 24 31 35 42 
 15 
 4 13 14 16 27 31 39 49 52 54 61 63 
 65 69 70 
 46 
 1 2 3 5 7 8 9 10 12 13 17 18 
 19 20 21 22 24 25 26 27 28 29 30 31 
 32 34 35 36 37 38 39 44 51 52 53 54 
 56 58 61 62 65 66 67 68 69 70 
 15 
 3 5 6 8 10 13 16 21 30 34 42 52 
 53 55 69 
 60 
 1 2 3 5 8 9 10 12 13 14 15 16 
 17 19 20 21 23 25 26 27 28 29 31 32 
 33 34 35 36 37 38 39 41 43 44 45 46 
 47 48 49 50 51 52 53 54 55 56 57 58 
 59 60 61 62 63 64 65 66 67 68 69 70 
 32 
 2 4 6 10 12 15 17 19 20 21 22 24 
 25 28 33 34 36 37 38 41 43 45 47 48 
 51 57 58 60 63 64 67 68 
 51 
 1 2 4 5 6 7 8 10 11 12 13 14 
 15 16 17 18 21 22 23 24 27 28 29 30 
 31 32 33 35 36 37 39 40 42 43 46 47 
 48 51 53 54 55 56 57 58 59 60 62 63 
 66 68 69 
 5 
 1 18 53 55 62 
 60 
 1 2 4 5 8 9 11 12 13 14 15 17 
 18 19 20 21 22 24 25 26 27 28 29 30 
 32 33 34 35 37 38 39 40 41 42 43 44 
 45 46 47 48 49 51 52 53 54 55 56 57 
 58 59 60 61 63 64 65 66 67 68 69 70 
 4 
 11 15 21 60 
 51 
 1 2 3 5 7 9 10 11 12 13 14 15 
 16 17 19 20 23 24 27 28 29 30 31 33 
 34 35 37 38 40 42 43 44 46 47 48 49 
 50 51 52 53 54 57 59 60 61 62 63 65 
 67 68 70 
 48 
 1 3 4 5 6 8 10 11 12 14 15 16 
 20 22 23 24 26 27 30 31 32 33 34 37 
 38 39 40 41 42 43 45 46 47 49 50 51 
 52 55 56 57 58 59 60 61 62 64 68 69 
 53 
 1 2 3 5 6 7 8 9 10 11 12 13 
 14 15 16 17 18 19 20 21 22 23 24 25 
 26 29 30 32 35 39 40 44 45 46 47 49 
 50 51 52 53 54 55 56 57 58 60 61 62 
 64 65 66 68 70 
 26 
 3 5 6 7 8 9 15 17 18 19 20 22 
 25 29 32 35 42 43 46 51 53 55 58 66 
 67 70 
 19 
 1 6 13 21 23 30 31 32 35 37 39 43 
 48 51 54 57 63 68 70 
 38 
 5 6 8 9 13 14 16 17 18 19 20 22 
 23 24 25 26 28 31 32 33 34 40 41 42 
 43 44 46 47 48 49 50 59 62 63 64 65 
 68 70 
 40 
 5 8 9 10 13 14 15 16 17 18 19 20 
 21 22 23 28 29 32 33 34 39 41 43 44 
 45 46 49 51 53 54 55 56 60 63 64 65 
 66 67 68 69 
 55 
 1 2 3 4 5 7 8 9 11 12 13 16 
 17 18 19 22 23 24 25 27 29 30 31 33 
 34 35 38 40 41 42 43 44 45 46 48 49 
 51 52 53 54 55 57 58 59 60 61 62 63 
 64 65 66 67 68 69 70 
 39 
 2 4 5 6 8 11 13 15 16 17 18 19 
 21 23 24 26 27 28 29 31 33 34 35 36 
 38 39 40 43 48 51 53 55 57 58 59 62 
 64 67 70 
 55 
 2 3 5 8 10 11 12 13 14 15 17 19 
 21 22 23 25 27 28 31 32 33 35 36 37 
 38 39 40 41 42 43 44 45 46 47 48 49 
 50 51 52 53 54 55 56 57 58 59 60 61 
 62 63 64 66 68 69 70 
 4 
 5 33 48 52 
 4 
 4 32 47 50 
 52 
 1 3 4 5 6 7 9 10 11 12 13 14 
 15 16 19 20 21 22 24 25 26 27 28 29 
 31 32 33 34 35 36 37 38 39 40 41 44 
 46 47 49 54 55 56 57 58 59 60 62 64 
 65 66 68 69 
 12 
 1 2 10 14 20 22 23 24 42 47 62 63 
 37 
 1 3 4 5 6 7 12 14 17 20 21 23 
 24 26 27 34 36 39 40 42 45 46 47 48 
 49 50 51 52 54 58 59 62 65 66 68 69 
 70 
 25 
 9 11 15 16 20 21 24 26 27 29 31 32 
 37 38 39 43 44 47 48 49 51 53 57 58 
 69 
 24 
 4 9 11 12 13 15 16 28 30 31 34 42 
 43 53 54 55 57 59 60 62 63 68 69 70 
 51 
 1 2 3 5 6 7 8 9 10 12 13 14 
 15 16 20 21 22 23 24 26 28 30 33 36 
 37 39 40 41 42 43 44 46 47 48 49 51 
 52 54 55 56 57 58 59 60 61 62 63 65 
 67 68 70 
 61 
 1 2 3 4 5 6 8 9 10 11 12 13 
 14 16 17 18 19 20 21 22 23 24 25 26 
 27 28 29 30 31 33 34 35 36 37 38 39 
 40 41 42 43 44 45 46 47 48 49 50 51 
 52 53 54 55 56 59 61 62 63 64 65 68 
 70 
 64 
 1 2 3 4 5 6 7 8 9 11 12 13 
 14 15 16 18 19 20 21 22 23 24 25 26 
 27 29 30 31 32 33 34 35 36 38 39 40 
 42 43 44 45 46 47 48 49 50 51 52 53 
 54 55 56 57 58 59 60 61 62 63 64 65 
 66 68 69 70 
 49 
 1 2 4 5 6 7 9 13 14 15 16 18 
 20 21 22 23 25 26 28 29 30 32 33 34 
 36 37 38 40 41 42 43 47 48 50 51 52 
 54 55 57 59 60 61 62 63 65 66 67 69 
 70 
 65 
 1 2 3 4 6 7 8 9 10 11 12 13 
 14 15 16 17 18 19 20 21 22 24 25 26 
 27 28 29 31 32 33 34 35 36 37 38 39 
 40 41 42 43 44 45 46 47 48 49 50 51 
 52 54 55 56 57 59 60 61 62 63 64 65 
 66 67 68 69 70 
 27 
 2 5 7 9 12 15 24 25 29 33 36 40 
 41 44 45 47 48 51 53 56 58 59 61 62 
 65 67 69 
 5 
 12 20 40 43 68 
 8 
 8 14 31 33 35 42 54 55 
 61 
 1 2 3 4 5 6 7 9 10 11 13 14 
 15 17 19 20 21 22 23 25 26 28 29 30 
 31 33 34 35 36 37 38 39 40 41 42 43 
 44 45 46 47 48 49 50 51 52 53 54 57 
 58 59 60 61 62 63 64 65 66 67 68 69 
 70 
 47 
 2 6 9 11 12 14 16 17 18 19 24 25 
 26 27 29 31 32 33 34 35 36 37 38 39 
 40 42 43 44 45 47 50 51 52 53 54 55 
 56 57 58 59 60 61 63 64 65 66 69 
 6 
 13 29 32 45 46 67 
 50 
 1 2 3 5 6 7 8 10 15 16 17 20 
 21 22 24 25 26 27 28 30 32 33 34 36 
 37 38 39 42 43 44 45 46 48 49 50 51 
 52 53 56 57 58 59 61 63 64 65 66 67 
 69 70 
 4 
 5 45 49 66 
 65 
 1 2 3 4 5 7 8 9 10 11 12 13 
 14 15 16 17 18 19 20 21 24 25 26 27 
 28 29 30 31 32 33 35 36 37 38 39 40 
 41 42 43 44 46 47 48 49 50 51 52 53 
 54 55 56 57 58 59 60 61 62 63 64 65 
 66 67 68 69 70 
 31 
 2 5 7 8 12 19 22 24 28 30 32 33 
 34 35 37 38 39 40 41 42 44 45 49 53 
 54 60 61 64 67 68 70 
 13 
 3 5 9 10 11 17 28 33 35 36 43 50 
 58 
 62 
 1 2 3 4 5 6 7 8 9 10 11 12 
 13 14 15 17 18 19 20 21 22 23 24 25 
 26 28 29 30 31 32 33 34 35 37 39 40 
 41 42 43 44 45 46 47 48 49 50 52 54 
 55 58 59 60 61 62 63 64 65 66 67 68 
 69 70 
 54 
 2 3 4 5 6 7 8 9 10 11 12 13 
 14 16 17 18 19 21 22 23 25 26 27 28 
 29 30 31 32 33 34 35 36 37 38 39 40 
 45 46 48 49 50 53 54 55 57 61 62 63 
 64 65 66 67 69 70 
 62 
 1 2 4 5 6 7 8 9 10 11 12 13 
 14 16 17 18 20 21 23 24 25 27 28 29 
 30 31 32 33 34 35 36 37 38 40 41 42 
 43 44 45 46 47 48 49 51 53 54 55 56 
 57 58 59 60 61 62 63 64 65 66 67 68 
 69 70 
 8 
 3 7 26 36 37 53 55 60 
 38 
 1 2 4 5 8 9 12 13 16 18 20 25 
 26 29 30 34 35 36 39 40 41 42 44 45 
 47 49 50 51 54 55 57 61 62 63 64 65 
 66 68 
 69 
 1 2 3 4 5 6 7 8 9 10 11 12 
 13 14 15 16 17 18 19 20 21 22 23 24 
 25 26 27 28 29 30 31 32 33 34 35 36 
 37 38 39 41 42 43 44 45 46 47 48 49 
 50 51 52 53 54 55 56 57 58 59 60 61 
 62 63 64 65 66 67 68 69 70 
 33 
 1 4 5 6 10 11 12 13 14 15 16 18 
 20 26 27 28 33 34 39 42 46 47 48 50 
 51 53 56 59 60 63 66 68 69 
 52 
 2 4 5 6 8 9 10 11 15 17 18 19 
 20 21 22 23 24 26 27 29 30 31 32 33 
 34 35 36 38 40 41 42 43 44 46 47 48 
 49 50 51 53 54 55 56 58 61 62 63 65 
 66 68 69 70 
 22 
 1 9 13 15 16 17 20 22 24 26 27 32 
 39 43 44 48 55 56 57 58 65 66 
 59 
 1 2 3 4 5 6 7 8 10 11 12 13 
 15 16 17 18 20 21 22 23 24 26 27 28 
 29 30 32 34 35 36 37 38 39 41 42 43 
 44 45 46 47 48 49 51 53 54 55 57 59 
 60 61 62 63 64 65 66 67 68 69 70 
 67 
 1 2 3 5 6 7 8 9 10 12 13 14 
 15 16 17 18 20 21 22 23 24 25 26 27 
 28 29 30 31 32 33 34 35 36 37 38 39 
 40 41 42 43 44 45 46 47 48 49 50 51 
 52 53 54 55 56 57 58 59 60 61 62 63 
 64 65 66 67 68 69 70 
 23 
 4 6 8 13 15 17 19 22 23 30 37 38 
 42 43 48 49 51 52 54 58 65 68 70 
 49 
 1 2 3 4 5 6 7 8 9 11 12 13 
 15 17 20 21 22 23 25 26 27 29 31 32 
 33 34 35 36 37 39 40 41 43 46 47 48 
 50 51 53 54 55 58 59 63 65 66 67 69 
 70 
 24 
 4 7 8 10 12 14 17 19 20 21 26 27 
 28 30 35 39 43 44 45 46 55 63 69 70 
 63 
 1 2 3 4 5 6 7 8 9 10 11 13 
 14 15 16 17 18 19 20 21 22 23 24 25 
 26 27 28 29 30 31 32 33 34 35 37 38 
 39 40 41 42 43 44 45 47 48 49 51 52 
 53 54 55 56 57 58 59 61 62 64 65 66 
 68 69 70 
 48 
 2 6 7 8 11 12 14 15 16 17 19 20 
 21 22 23 24 26 27 30 31 33 35 36 38 
 39 41 42 43 44 47 48 49 50 51 53 54 
 55 56 59 60 62 63 64 66 67 68 69 70 
 53 
 2 4 5 6 7 8 9 11 12 13 14 15 
 16 17 18 19 20 21 22 23 24 25 26 27 
 28 31 32 34 35 36 38 39 41 42 43 44 
 45 47 50 52 53 54 55 56 57 59 60 61 
 64 65 66 67 69 
 43 
 1 2 3 4 6 7 10 15 17 18 20 22 
 23 25 26 27 28 30 31 33 34 36 37 38 
 39 40 42 44 45 46 47 48 50 52 53 54 
 57 59 61 62 67 68 70 
 57 
 1 2 4 5 6 8 9 10 11 12 13 14 
 15 16 17 18 19 20 21 23 24 25 26 27 
 28 29 30 34 35 36 37 38 39 40 42 43 
 45 46 47 48 49 50 51 52 53 55 56 57 
 58 59 60 62 63 64 65 69 70 
 62 
 1 2 3 4 5 6 8 9 10 11 12 13 
 14 15 16 17 18 19 21 22 23 24 25 26 
 27 28 29 30 31 33 34 36 37 38 39 40 
 41 42 43 44 45 47 48 49 51 52 53 54 
 55 56 57 59 60 61 62 63 64 65 66 67 
 69 70 
 58 
 1 2 4 5 6 7 8 9 10 12 13 14 
 15 16 17 19 20 21 22 23 24 25 26 27 
 28 30 31 32 33 34 35 36 37 38 39 40 
 43 45 46 47 48 50 52 53 54 55 56 57 
 58 59 60 61 62 63 65 67 69 70 
 34 
 3 6 7 10 11 13 14 17 20 21 24 27 
 28 29 31 35 38 39 46 47 48 49 51 52 
 53 54 57 59 61 63 64 65 66 68 
 25 
 1 2 5 6 7 9 15 16 18 19 21 26 
 36 39 41 45 46 47 48 49 52 59 62 69 
 70 
 27 
 5 6 7 10 11 12 13 14 17 19 23 33 
 36 37 39 40 47 49 52 56 57 58 59 61 
 64 65 69 
 9 
 12 18 22 24 26 40 45 47 69 
 19 
 3 4 9 17 18 24 25 29 33 40 42 48 
 51 52 53 57 64 65 68 
 22 
 2 4 9 10 13 15 21 24 25 30 32 33 
 35 37 41 43 48 53 56 61 65 70 
 27 
 3 7 8 12 15 19 22 24 26 28 29 31 
 34 36 37 40 41 46 50 52 55 57 58 59 
 60 66 67 
 16 
 2 9 14 15 22 33 34 35 38 44 45 51 
 53 61 65 67 
 44 
 1 2 4 5 7 12 13 14 15 16 17 18 
 19 20 22 25 27 28 29 30 31 33 34 35 
 39 40 42 43 45 51 52 53 54 56 58 59 
 60 61 62 65 67 68 69 70 
 56 
 2 3 4 5 6 7 9 11 12 13 16 17 
 20 21 22 23 25 26 27 28 29 30 31 32 
 33 34 35 36 38 39 40 41 42 43 44 45 
 46 47 49 50 51 52 53 56 57 58 60 61 
 63 64 65 66 67 68 69 70 
 10 
 16 28 42 54 55 60 63 65 69 70 
 16 
 2 7 8 13 15 21 23 25 33 39 41 43 
 54 57 63 64 
 26 
 2 3 9 10 12 16 17 18 20 21 24 25 
 26 29 30 36 39 43 44 48 49 53 54 55 
 58 61 
 62 
 1 2 3 4 6 8 9 10 11 13 14 15 
 16 17 18 19 20 21 22 23 24 25 26 27 
 28 30 31 32 33 35 36 37 39 40 41 42 
 43 44 45 47 48 49 50 51 52 53 54 55 
 56 57 58 59 60 61 62 63 65 66 67 68 
 69 70 
 23 
 2 9 10 11 12 15 17 21 23 28 31 36 
 40 44 51 55 56 57 58 62 64 67 68 
 5 
 14 24 34 35 53 
 59 
 1 2 3 4 5 6 7 8 9 10 13 15 
 17 18 19 20 21 22 23 24 25 26 27 28 
 29 30 31 32 33 36 37 38 40 41 42 43 
 44 46 48 49 50 51 52 53 55 56 57 58 
 59 60 61 62 63 65 66 67 68 69 70 
 18 
 1 4 14 31 35 36 37 39 41 42 43 52 
 53 54 60 62 65 67 
 3 
 38 43 64 
 61 
 1 2 3 5 6 7 8 9 10 11 12 13 
 14 15 16 17 18 19 20 21 22 23 25 27 
 28 29 30 31 32 33 34 35 36 37 39 40 
 41 42 43 45 46 47 49 51 52 53 54 55 
 56 57 58 59 61 62 63 64 65 66 67 68 
 70 
 39 
 1 3 5 7 10 11 12 13 15 16 18 19 
 20 22 23 26 29 30 33 34 35 39 40 41 
 42 47 50 51 53 54 55 56 57 58 60 62 
 63 67 69 
 28 
 2 4 7 8 10 12 13 18 19 24 27 28 
 31 33 34 35 36 37 38 40 47 48 52 56 
 60 63 64 70 
 70 
 1 2 3 4 5 6 7 8 9 10 11 12 
 13 14 15 16 17 18 19 20 21 22 23 24 
 25 26 27 28 29 30 31 32 33 34 35 36 
 37 38 39 40 41 42 43 44 45 46 47 48 
 49 50 51 52 53 54 55 56 57 58 59 60 
 61 62 63 64 65 66 67 68 69 70 
 60 
 1 2 3 4 5 6 7 8 10 11 15 16 
 17 18 19 20 21 22 23 25 26 27 28 29 
 30 31 32 33 34 35 36 37 38 39 40 41 
 43 44 45 46 47 49 50 51 52 53 54 55 
 56 57 58 59 61 62 63 65 67 68 69 70 
 31 
 1 2 3 5 6 11 13 17 19 23 26 27 
 32 35 36 39 41 43 44 47 49 50 52 55 
 56 57 58 62 65 69 70 
 33 
 1 3 5 6 8 9 12 13 14 22 23 25 
 35 36 39 41 42 43 46 49 52 53 54 55 
 56 57 58 60 62 65 67 68 69 
 34 
 1 3 4 6 7 11 12 14 17 20 21 22 
 25 27 28 30 31 32 35 36 38 42 44 46 
 48 50 54 56 63 64 65 68 69 70 
 42 
 1 4 5 8 9 10 11 13 15 16 18 20 
 21 26 27 28 29 30 31 34 35 37 38 39 
 40 41 43 44 45 47 48 52 53 54 56 57 
 58 62 64 65 68 69 
 18 
 4 15 20 21 26 28 38 41 43 47 49 50 
 54 57 61 62 64 66 
 28 
 3 4 5 7 18 20 21 24 27 31 32 33 
 35 36 38 41 43 46 47 53 54 56 60 63 
 64 66 67 70 
 35 
 2 4 6 7 8 9 10 14 16 19 23 24 
 27 29 35 37 40 41 42 44 46 47 48 49 
 51 52 53 54 55 56 58 61 65 66 67 
 40 
 4 7 8 11 12 13 14 15 16 17 18 19 
 20 21 24 25 27 28 29 30 31 32 33 34 
 38 41 42 43 44 49 50 52 56 58 59 61 
 63 64 68 69 
 15 
 3 7 12 13 14 16 20 24 31 35 38 54 
 59 61 69 
 14 
 2 3 4 14 18 27 37 39 50 55 63 66 
 67 68 
 33 
 1 2 3 5 13 16 19 20 23 30 31 33 
 34 35 37 41 44 46 48 49 52 53 56 59 
 61 62 63 64 66 67 68 69 70 
 18 
 2 11 12 15 19 20 25 26 27 32 34 37 
 39 52 53 61 65 69 
 45 
 1 4 5 6 7 8 11 12 13 14 16 18 
 19 20 22 25 26 27 29 30 31 33 35 37 
 38 39 42 43 44 46 47 48 49 51 52 55 
 56 59 62 63 64 66 67 68 69 
 24 
 3 4 7 8 10 14 16 19 23 24 25 28 
 29 31 39 44 46 54 57 62 64 66 68 70 
 39 
 2 3 4 5 6 8 11 12 17 19 20 23 
 24 25 28 30 31 33 35 36 37 38 40 44 
 45 47 48 49 53 54 55 57 59 60 63 64 
 66 69 70 
 50 
 1 2 3 5 6 7 8 10 11 12 13 18 
 19 20 22 23 24 25 26 27 29 30 31 32 
 33 34 37 38 39 40 41 42 43 44 46 48 
 50 54 55 56 57 58 61 62 63 64 66 67 
 68 70 
 38 
 1 3 4 5 7 9 11 13 17 19 21 22 
 24 25 27 29 30 31 36 37 39 40 42 43 
 45 46 48 50 52 53 54 55 60 61 62 63 
 64 68 
 34 
 1 3 4 7 8 9 10 11 12 15 17 21 
 22 26 31 35 36 37 38 39 40 41 44 46 
 47 50 58 59 60 63 66 67 69 70 
 7 
 7 23 27 29 30 36 63 
 2 
 8 21 
 7 
 13 23 43 46 54 69 70 
 17 
 2 4 9 10 17 19 21 23 36 37 39 41 
 43 54 58 62 67 
 55 
 1 2 3 4 5 6 9 10 11 13 14 15 
 17 18 19 21 22 23 24 25 26 28 29 31 
 32 33 35 36 38 39 40 41 42 43 44 47 
 48 49 50 51 52 54 55 56 57 58 60 61 
 62 64 65 67 68 69 70 
 32 
 4 6 12 13 15 16 18 20 21 22 23 24 
 25 26 28 29 31 33 34 38 39 40 42 47 
 51 52 53 57 59 65 68 69 
 53 
 1 2 4 5 6 7 8 9 10 12 14 16 
 17 18 19 20 22 24 25 26 27 29 30 31 
 32 33 35 36 37 38 41 42 43 44 45 47 
 48 49 50 51 53 54 56 58 59 60 61 62 
 63 65 68 69 70 
 56 
 1 2 4 5 6 7 8 9 10 11 12 13 
 15 16 17 18 19 20 22 23 24 26 27 28 
 29 30 32 33 34 35 37 38 39 40 41 42 
 44 46 47 48 49 50 51 52 54 55 58 59 
 62 63 64 66 67 68 69 70 
 9 
 2 10 17 28 31 32 40 47 59 
 21 
 4 7 14 17 18 23 25 28 30 32 33 39 
 42 43 44 56 62 64 65 67 69 
 33 
 3 4 5 7 8 9 10 12 15 17 18 19 
 22 23 24 28 31 32 33 35 36 37 41 42 
 43 44 46 48 49 52 54 66 70 
 25 
 6 13 19 20 21 24 25 26 28 29 32 34 
 35 38 41 46 53 54 55 58 59 63 64 67 
 70 
 31 
 3 4 5 6 13 15 16 20 21 22 23 24 
 25 27 28 29 30 35 36 37 39 40 44 46 
 51 52 53 57 61 64 65 
 9 
 8 24 33 39 44 62 64 66 70 
 11 
 7 13 14 19 22 35 40 50 56 64 67 
 2 
 20 50 
 28 
 11 12 14 17 19 20 23 24 25 28 29 33 
 37 40 44 45 48 49 51 53 54 56 57 61 
 62 63 64 69 
 25 
 2 3 4 7 8 11 13 16 19 21 25 28 
 30 31 33 34 36 39 41 42 55 57 61 66 
 69 
 70 
 1 2 3 4 5 6 7 8 9 10 11 12 
 13 14 15 16 17 18 19 20 21 22 23 24 
 25 26 27 28 29 30 31 32 33 34 35 36 
 37 38 39 40 41 42 43 44 45 46 47 48 
 49 50 51 52 53 54 55 56 57 58 59 60 
 61 62 63 64 65 66 67 68 69 70 
 44 
 4 5 6 7 9 10 11 12 15 17 18 19 
 20 21 23 24 25 26 32 33 36 37 38 39 
 44 48 49 50 51 52 53 54 55 56 59 60 
 61 62 63 64 66 67 68 70 
 12 
 5 7 17 23 27 31 34 38 40 42 50 68 
 18 
 2 5 8 12 17 26 29 31 32 41 42 43 
 45 54 55 57 65 68 
 24 
 6 7 10 12 13 14 15 17 19 24 25 37 
 41 44 47 50 53 54 55 61 62 67 68 70 
 27 
 1 5 7 8 10 14 15 18 20 22 24 26 
 30 31 35 36 38 39 45 47 51 52 54 56 
 60 61 64 
 39 
 3 4 5 6 10 11 12 13 16 17 18 22 
 23 24 25 27 30 31 32 33 35 36 39 40 
 43 44 45 49 50 51 52 54 55 56 57 63 
 64 66 68 
 59 
 1 2 3 5 7 8 9 12 13 14 15 16 
 19 20 21 22 23 24 25 27 28 29 30 31 
 32 33 34 35 36 37 38 39 41 42 43 44 
 45 46 47 48 49 50 52 53 54 55 56 57 
 58 59 60 62 63 64 65 67 68 69 70 
 22 
 3 5 6 12 14 15 18 19 20 22 23 27 
 29 33 44 50 51 52 55 61 64 66 
 54 
 1 2 5 6 8 9 10 11 12 13 14 15 
 16 17 18 19 20 21 22 23 24 25 26 27 
 28 29 30 31 32 34 35 36 37 38 39 43 
 44 45 46 47 49 50 52 55 57 58 59 60 
 61 63 64 68 69 70 
 25 
 2 6 7 14 21 25 26 30 32 34 35 40 
 41 42 46 48 49 54 57 58 59 60 61 64 
 69 
 70 
 1 2 3 4 5 6 7 8 9 10 11 12 
 13 14 15 16 17 18 19 20 21 22 23 24 
 25 26 27 28 29 30 31 32 33 34 35 36 
 37 38 39 40 41 42 43 44 45 46 47 48 
 49 50 51 52 53 54 55 56 57 58 59 60 
 61 62 63 64 65 66 67 68 69 70 
 34 
 1 3 4 7 11 12 13 14 16 17 24 26 
 31 32 35 38 40 41 42 46 47 48 52 54 
 55 57 59 61 63 64 65 66 68 69 
 61 
 1 2 4 5 6 7 8 9 10 11 12 13 
 14 15 16 18 19 20 21 22 23 25 26 27 
 28 29 32 33 35 36 37 39 40 41 42 43 
 44 46 47 49 50 51 52 53 54 55 56 57 
 58 59 60 61 62 63 64 65 66 67 68 69 
 70 
 43 
 2 3 4 5 8 9 10 11 12 13 14 16 
 20 21 23 24 28 29 30 31 34 35 36 38 
 40 41 43 44 45 46 47 48 49 50 52 55 
 56 57 61 62 64 67 70 
 51 
 2 3 4 6 7 9 10 11 12 13 14 16 
 17 18 19 20 21 22 23 25 26 27 29 30 
 31 32 33 34 35 36 37 38 40 41 42 43 
 45 46 49 51 52 55 56 58 60 61 62 65 
 67 68 69 
 47 
 2 3 6 7 10 11 12 13 15 16 18 19 
 22 23 24 25 26 28 29 30 31 32 33 34 
 36 37 40 41 43 44 45 46 48 50 51 52 
 54 55 58 59 60 61 62 63 66 67 70 
 34 
 2 4 7 10 11 12 14 16 21 23 24 25 
 27 29 30 33 34 36 37 38 40 41 42 43 
 47 48 51 55 56 58 60 61 62 65 
 63 
 1 2 3 4 5 6 7 8 9 10 11 12 
 13 14 15 17 20 21 22 23 24 25 26 28 
 29 30 31 33 34 35 36 37 38 39 41 42 
 43 44 45 46 48 49 50 51 52 53 54 55 
 56 57 58 59 60 61 62 63 64 65 66 67 
 68 69 70 
 50 
 1 2 3 4 7 8 9 10 11 15 16 17 
 21 23 24 26 27 28 29 30 31 34 35 36 
 37 38 39 40 41 42 43 44 45 46 47 49 
 50 51 52 53 55 56 57 60 62 64 66 67 
 68 69 
 62 
 1 2 3 4 5 6 7 8 9 10 11 13 
 14 15 16 17 18 20 21 22 23 24 25 28 
 29 30 31 33 34 35 36 37 38 41 42 43 
 44 45 46 47 48 49 50 51 52 53 54 55 
 56 57 58 60 61 62 63 64 65 66 67 68 
 69 70 
 5 
 14 26 29 36 47 
 5 
 17 24 28 35 65 
 70 
 1 2 3 4 5 6 7 8 9 10 11 12 
 13 14 15 16 17 18 19 20 21 22 23 24 
 25 26 27 28 29 30 31 32 33 34 35 36 
 37 38 39 40 41 42 43 44 45 46 47 48 
 49 50 51 52 53 54 55 56 57 58 59 60 
 61 62 63 64 65 66 67 68 69 70 
 12 
 1 5 7 13 29 31 35 37 51 52 57 60 
 20 
 1 4 13 15 19 20 22 23 24 25 27 31 
 35 40 42 49 57 58 59 62 
 5 
 4 35 53 56 69 
 24 
 2 4 5 8 11 19 22 25 30 31 33 36 
 38 42 44 45 50 51 52 56 59 60 64 69 
 22 
 11 13 15 16 17 20 23 26 28 32 36 38 
 40 43 44 48 58 62 64 67 68 70 
 30 
 2 3 5 7 9 10 13 14 15 21 23 25 
 29 31 32 36 38 41 43 44 47 54 56 57 
 61 62 63 64 66 67 
 23 
 4 5 6 7 9 10 13 19 26 33 36 39 
 41 42 44 46 49 51 56 57 65 68 70 
 68 
 1 2 3 4 5 6 7 8 9 10 11 12 
 13 14 15 16 17 18 19 20 21 22 23 24 
 25 26 27 28 29 30 31 32 33 34 35 36 
 37 38 39 40 41 42 44 45 46 47 48 49 
 50 51 52 53 54 55 56 57 58 59 61 62 
 63 64 65 66 67 68 69 70 
 60 
 1 2 3 5 6 7 8 9 10 11 12 13 
 15 16 17 18 19 20 21 22 23 24 25 26 
 27 28 31 32 33 34 35 36 37 38 39 40 
 41 42 43 44 45 46 47 48 49 51 53 54 
 55 57 58 59 60 62 63 64 66 67 68 70 
 14 
 2 5 12 17 22 32 40 42 47 49 59 63 
 68 70 
 57 
 1 2 3 4 5 6 7 8 9 10 11 12 
 14 15 17 18 19 20 21 22 23 24 27 28 
 29 30 31 32 33 34 36 37 38 39 40 41 
 42 43 44 45 46 49 51 52 53 54 55 57 
 58 59 60 61 62 63 64 66 70 
 43 
 1 3 4 6 8 10 14 15 16 17 18 19 
 21 22 25 26 27 28 29 34 38 39 42 43 
 44 45 46 47 48 49 51 53 54 55 56 57 
 59 60 62 64 66 68 70 
 62 
 1 3 4 5 6 7 8 9 11 12 13 14 
 15 16 17 18 19 20 21 24 25 28 29 30 
 31 32 33 34 35 36 37 38 39 40 41 42 
 43 44 45 46 47 48 49 50 51 52 53 54 
 55 56 58 59 60 61 62 63 64 65 66 67 
 68 69 
 49 
 1 3 4 5 6 7 8 9 10 13 14 15 
 16 18 19 20 21 22 24 26 29 30 31 33 
 34 35 39 40 41 45 47 49 50 51 52 53 
 54 55 56 57 59 60 62 63 64 66 68 69 
 70 
 15 
 1 26 27 29 39 40 44 50 51 54 55 57 
 63 65 66 
 6 
 1 7 34 44 45 48 
 26 
 1 3 4 6 9 13 18 21 24 26 37 38 
 39 43 46 48 49 50 53 55 58 61 65 66 
 68 70 
 22 
 10 12 14 15 16 20 23 24 25 26 33 36 
 40 46 52 53 54 57 58 59 60 63 
 6 
 15 22 25 37 62 67 
 41 
 2 4 5 6 7 8 9 10 13 16 17 19 
 20 22 24 27 29 30 32 33 37 39 42 43 
 44 46 47 52 53 54 55 56 58 59 61 63 
 64 65 67 69 70 
 42 
 1 5 6 7 8 10 11 12 13 15 16 17 
 18 19 20 21 22 23 24 25 28 29 30 35 
 36 37 38 39 40 41 50 51 52 54 56 59 
 60 61 62 63 66 70 
 61 
 2 3 4 5 6 7 8 9 10 11 12 13 
 14 15 16 17 19 20 22 23 24 26 27 28 
 29 30 31 32 33 34 35 36 37 38 40 41 
 42 43 45 46 47 48 49 50 51 52 53 54 
 55 56 57 58 59 60 61 63 64 67 68 69 
 70 
 19 
 1 5 8 11 14 16 33 34 36 37 38 39 
 42 47 54 59 61 65 68 
 34 
 1 3 7 10 13 16 18 20 23 26 27 28 
 30 33 36 37 39 43 44 47 48 49 50 51 
 52 54 57 58 59 60 62 66 67 69 
 28 
 5 8 13 14 17 21 23 24 26 31 34 37 
 38 39 41 43 47 48 49 50 51 53 58 59 
 62 65 67 68 
 23 
 1 5 7 9 11 18 19 20 23 25 27 29 
 32 35 37 42 55 57 58 61 64 66 70 
 